
c turning on binary mode checking

c parsing input formula with 8472 variables and 31050 clauses

c finished parsing, read 22833 bytes from proof file

c detected empty clause; start verification via backward checking

c 2506 of 31050 clauses in core                            

c 35 of 5622 lemmas in core using 30186 resolution steps

c 0 RAT lemmas in core; 9 redundant literals in core lemmas

s VERIFIED

c verification time: 0.061 seconds
